p cnf 196 413
1 0
2 0
3 0
4 0
5 0
6 0
-7 0
8 0
9 0
10 0
11 0
12 0
13 0
14 0
15 0
16 0
17 0
18 0
19 0
20 0
21 0
22 0
-23 24 0
24 -25 0
23 25 -24 0
1 -24 0
-1 24 0
-25 26 0
-27 26 0
25 27 -26 0
23 -26 0
-23 26 0
-28 29 0
-30 29 0
28 30 -29 0
2 -29 0
-2 29 0
-31 32 0
-33 32 0
31 33 -32 0
28 -32 0
-28 32 0
-34 35 0
35 -36 0
34 36 -35 0
31 -35 0
-31 35 0
-37 38 0
-39 38 0
37 39 -38 0
34 -38 0
-34 38 0
-40 41 0
41 -42 0
40 42 -41 0
37 -41 0
-37 41 0
-43 44 0
-45 44 0
43 45 -44 0
40 -44 0
-40 44 0
-39 46 0
-42 46 0
-45 46 0
-47 46 0
39 42 45 47 -46 0
43 -46 0
-43 46 0
-48 49 0
49 -50 0
48 50 -49 0
3 -49 0
-3 49 0
-4 51 0
51 -52 0
4 52 -51 0
48 -51 0
-48 51 0
-53 54 0
-55 54 0
53 55 -54 0
4 -54 0
-4 54 0
-56 57 0
57 -58 0
56 58 -57 0
53 -57 0
-53 57 0
-59 60 0
60 -61 0
59 61 -60 0
56 -60 0
-56 60 0
-62 63 0
-64 63 0
62 64 -63 0
59 -63 0
-59 63 0
-58 65 0
-61 65 0
-64 65 0
65 -66 0
58 61 64 66 -65 0
62 -65 0
-62 65 0
-6 67 0
67 -68 0
6 68 -67 0
5 -67 0
-5 67 0
-7 69 0
69 -70 0
7 70 -69 0
6 -69 0
-6 69 0
7 -71 0
-7 71 0
-72 73 0
73 -74 0
72 74 -73 0
8 -73 0
-8 73 0
-75 76 0
-77 76 0
75 77 -76 0
72 -76 0
-72 76 0
-78 79 0
-80 79 0
78 80 -79 0
75 -79 0
-75 79 0
-81 82 0
-83 82 0
81 83 -82 0
78 -82 0
-78 82 0
-80 84 0
-83 84 0
84 -85 0
80 83 85 -84 0
81 -84 0
-81 84 0
-86 87 0
-88 87 0
86 88 -87 0
9 -87 0
-9 87 0
-89 90 0
-91 90 0
89 91 -90 0
86 -90 0
-86 90 0
-10 92 0
-93 92 0
10 93 -92 0
89 -92 0
-89 92 0
-1 94 0
94 -95 0
1 95 -94 0
10 -94 0
-10 94 0
-96 97 0
-98 97 0
96 98 -97 0
11 -97 0
-11 97 0
-99 100 0
-101 100 0
99 101 -100 0
96 -100 0
-96 100 0
-102 103 0
-104 103 0
102 104 -103 0
99 -103 0
-99 103 0
-81 105 0
105 -106 0
81 106 -105 0
102 -105 0
-102 105 0
-107 108 0
108 -109 0
107 109 -108 0
12 -108 0
-12 108 0
-110 111 0
-112 111 0
110 112 -111 0
107 -111 0
-107 111 0
-23 113 0
-114 113 0
23 114 -113 0
110 -113 0
-110 113 0
-115 116 0
116 -117 0
115 117 -116 0
13 -116 0
-13 116 0
-118 119 0
-120 119 0
118 120 -119 0
115 -119 0
-115 119 0
118 -121 0
-118 121 0
-122 123 0
123 -124 0
122 124 -123 0
14 -123 0
-14 123 0
-62 125 0
125 -126 0
62 126 -125 0
122 -125 0
-122 125 0
-127 128 0
128 -129 0
127 129 -128 0
15 -128 0
-15 128 0
-122 130 0
-131 130 0
122 131 -130 0
127 -130 0
-127 130 0
-132 133 0
-134 133 0
132 134 -133 0
16 -133 0
-16 133 0
-135 136 0
-137 136 0
135 137 -136 0
132 -136 0
-132 136 0
-138 139 0
-140 139 0
138 140 -139 0
135 -139 0
-135 139 0
-141 142 0
142 -143 0
141 143 -142 0
138 -142 0
-138 142 0
-144 145 0
145 -146 0
144 146 -145 0
141 -145 0
-141 145 0
-147 148 0
148 -149 0
147 149 -148 0
144 -148 0
-144 148 0
-150 151 0
-152 151 0
150 152 -151 0
147 -151 0
-147 151 0
-146 153 0
-149 153 0
-152 153 0
-154 153 0
146 149 152 154 -153 0
150 -153 0
-150 153 0
-18 155 0
155 -156 0
18 156 -155 0
17 -155 0
-17 155 0
-19 157 0
157 -158 0
19 158 -157 0
18 -157 0
-18 157 0
-159 160 0
-161 160 0
159 161 -160 0
19 -160 0
-19 160 0
-162 163 0
-164 163 0
162 164 -163 0
159 -163 0
-159 163 0
-165 166 0
166 -167 0
165 167 -166 0
162 -166 0
-162 166 0
-158 168 0
-161 168 0
-164 168 0
-167 168 0
168 -169 0
158 161 164 167 169 -168 0
165 -168 0
-165 168 0
-170 171 0
171 -172 0
170 172 -171 0
20 -171 0
-20 171 0
-31 173 0
173 -174 0
31 174 -173 0
170 -173 0
-170 173 0
-175 176 0
176 -177 0
175 177 -176 0
21 -176 0
-21 176 0
-178 179 0
-180 179 0
178 180 -179 0
175 -179 0
-175 179 0
-6 181 0
-182 181 0
6 182 -181 0
178 -181 0
-178 181 0
-183 184 0
184 -185 0
183 185 -184 0
22 -184 0
-22 184 0
-19 186 0
-187 186 0
19 187 -186 0
183 -186 0
-183 186 0
25 -188 0
-188 -27 0
-188 -30 0
-188 -33 0
36 -188 0
-188 -39 0
42 -188 0
-188 -45 0
-188 -47 0
50 -188 0
52 -188 0
-188 -55 0
58 -188 0
61 -188 0
-188 -64 0
66 -188 0
68 -188 0
70 -188 0
-188 -71 0
74 -188 0
-188 -77 0
-188 -80 0
-188 -83 0
85 -188 0
-188 -88 0
-188 -91 0
-188 -93 0
95 -188 0
-188 -98 0
-188 -101 0
-188 -104 0
106 -188 0
109 -188 0
-188 -112 0
-188 -114 0
117 -188 0
-188 -120 0
121 -188 0
124 -188 0
126 -188 0
129 -188 0
-188 -131 0
-188 -134 0
-188 -137 0
-188 -140 0
143 -188 0
146 -188 0
149 -188 0
-188 -152 0
-188 -154 0
156 -188 0
158 -188 0
-188 -161 0
-188 -164 0
167 -188 0
169 -188 0
172 -188 0
174 -188 0
177 -188 0
-188 -180 0
-188 -182 0
185 -188 0
-188 -187 0
188 0
-189 0
-190 0
-191 0
-192 0
-193 0
-194 0
-195 0
-196 0
